40515 38800 
40444 38914 
40945 38219 
40710 38516 
40679 38608 
40608 38722 
40639 38630 
40874 38333 
41002 37713 
41041 37180 
40338 39011 
40202 39091 
40573 38761 
40214 39012 
40171 39183 
37376 40826 
38416 40601 
36679 40898 
36470 40912 
38030 40684 
39198 40089 
38623 40463 
37761 40722 
38487 40543 
39686 39637 
39451 39934 
39229 39997 
39405 39951 
38673 40311 
38876 40308 
39893 39499 
40077 39247 
39717 39545 
38669 40446 
39658 39796 
38926 40156 
38904 40196 
39924 39407 
40088 39215 
39952 39295 
